(set-logic ALL)
(declare-const GEN1 Int)
(declare-const BAV2 Bool)
(declare-const BAV3 Bool)
(declare-const BAV4 Bool)
(declare-fun P (Int) Bool)
(declare-fun Q (Int) Bool)
(assert (and (forall ((x Int)) (P x)) (forall ((x Int)) (Q x))))
(declare-fun k () Real)
(declare-fun k2 () Int)
(assert (or (not (P (to_int k))) (not (P k2))))
(assert (= k GEN1))
(assert (= BAV2 (and (forall ((x Int)) (P x)) (forall ((x Int)) (Q x)))))
(assert (= BAV3 (or (not (P (to_int k))) (not (P k2)))))
(assert (= BAV4 (= k GEN1)))
(check-sat)